c Reduced graph for p36_3 generated by Cyril Grelier
p edge 93 721
v 1 2100
v 2 2100
v 3 1150
v 4 1150
v 5 900
v 6 900
v 7 650
v 8 650
v 9 450
v 10 450
v 11 400
v 12 400
v 13 360
v 14 360
v 15 350
v 16 350
v 17 280
v 18 280
v 19 250
v 20 250
v 21 200
v 22 200
v 23 180
v 24 150
v 25 150
v 26 150
v 27 150
v 28 150
v 29 130
v 30 130
v 31 130
v 32 130
v 33 120
v 34 120
v 35 120
v 36 120
v 37 110
v 38 110
v 39 100
v 40 100
v 41 100
v 42 90
v 43 90
v 44 80
v 45 80
v 46 80
v 47 80
v 48 80
v 49 80
v 50 70
v 51 70
v 52 70
v 53 70
v 54 60
v 55 60
v 56 60
v 57 60
v 58 60
v 59 60
v 60 60
v 61 60
v 62 60
v 63 60
v 64 50
v 65 50
v 66 50
v 67 50
v 68 50
v 69 40
v 70 40
v 71 30
v 72 30
v 73 30
v 74 30
v 75 30
v 76 30
v 77 30
v 78 30
v 79 30
v 80 30
v 81 30
v 82 30
v 83 25
v 84 25
v 85 20
v 86 15
v 87 15
v 88 10
v 89 10
v 90 10
v 91 10
v 92 10
v 93 10
e 1 2
e 1 3
e 1 5
e 1 7
e 1 11
e 1 17
e 1 19
e 1 25
e 1 27
e 1 50
e 1 51
e 1 73
e 1 75
e 1 78
e 1 79
e 1 81
e 2 10
e 2 14
e 2 16
e 2 23
e 2 28
e 2 32
e 2 50
e 2 51
e 2 73
e 2 75
e 2 78
e 2 79
e 2 81
e 3 4
e 3 5
e 3 7
e 3 11
e 3 17
e 3 19
e 3 23
e 3 25
e 3 27
e 3 46
e 3 54
e 3 58
e 3 69
e 3 70
e 3 71
e 3 72
e 3 83
e 3 84
e 4 22
e 4 23
e 4 36
e 4 38
e 4 46
e 4 48
e 4 49
e 4 54
e 4 58
e 4 67
e 4 69
e 4 70
e 4 71
e 4 72
e 4 83
e 4 84
e 5 6
e 5 7
e 5 11
e 5 17
e 5 19
e 5 21
e 5 22
e 5 25
e 5 27
e 5 39
e 5 40
e 5 44
e 5 77
e 5 88
e 5 90
e 6 21
e 6 22
e 6 39
e 6 40
e 6 43
e 6 44
e 6 46
e 6 53
e 6 59
e 6 68
e 6 77
e 6 88
e 6 90
e 7 8
e 7 9
e 7 10
e 7 11
e 7 17
e 7 19
e 7 25
e 7 27
e 7 34
e 7 36
e 7 56
e 7 57
e 7 65
e 7 91
e 8 9
e 8 10
e 8 30
e 8 34
e 8 36
e 8 56
e 8 57
e 8 62
e 8 65
e 8 77
e 8 79
e 8 82
e 8 84
e 8 91
e 9 10
e 9 21
e 9 33
e 9 34
e 9 36
e 9 42
e 9 56
e 9 57
e 9 60
e 9 63
e 9 65
e 9 72
e 9 87
e 9 91
e 10 14
e 10 16
e 10 23
e 10 28
e 10 32
e 10 34
e 10 36
e 10 56
e 10 57
e 10 65
e 10 91
e 11 12
e 11 17
e 11 19
e 11 25
e 11 27
e 11 31
e 11 32
e 11 47
e 11 49
e 11 76
e 11 85
e 12 31
e 12 32
e 12 35
e 12 47
e 12 49
e 12 58
e 12 76
e 12 81
e 12 85
e 12 90
e 12 91
e 13 14
e 13 18
e 13 19
e 13 20
e 13 40
e 13 41
e 13 45
e 13 47
e 13 48
e 13 54
e 13 55
e 13 65
e 13 78
e 13 86
e 13 87
e 14 16
e 14 19
e 14 20
e 14 23
e 14 28
e 14 32
e 14 41
e 14 45
e 14 48
e 14 86
e 14 87
e 15 16
e 15 20
e 15 24
e 15 25
e 15 29
e 15 30
e 15 33
e 15 35
e 15 37
e 15 38
e 15 55
e 15 56
e 15 59
e 15 66
e 15 70
e 15 75
e 15 80
e 15 85
e 15 92
e 16 23
e 16 24
e 16 25
e 16 28
e 16 29
e 16 30
e 16 32
e 16 33
e 16 35
e 16 37
e 16 38
e 16 55
e 16 59
e 17 18
e 17 19
e 17 25
e 17 27
e 17 60
e 17 62
e 17 64
e 17 66
e 17 67
e 17 68
e 17 74
e 18 40
e 18 47
e 18 54
e 18 55
e 18 60
e 18 62
e 18 64
e 18 65
e 18 66
e 18 67
e 18 68
e 18 74
e 18 78
e 19 20
e 19 25
e 19 27
e 19 41
e 19 45
e 19 48
e 19 86
e 19 87
e 20 41
e 20 45
e 20 48
e 20 56
e 20 66
e 20 70
e 20 75
e 20 80
e 20 85
e 20 86
e 20 87
e 20 92
e 21 22
e 21 33
e 21 39
e 21 40
e 21 42
e 21 44
e 21 60
e 21 63
e 21 72
e 21 77
e 21 87
e 21 88
e 21 90
e 22 36
e 22 38
e 22 39
e 22 40
e 22 44
e 22 48
e 22 49
e 22 67
e 22 77
e 22 88
e 22 90
e 23 28
e 23 32
e 23 46
e 23 54
e 23 58
e 23 69
e 23 70
e 23 71
e 23 72
e 23 83
e 23 84
e 24 25
e 24 29
e 24 30
e 24 33
e 24 35
e 24 37
e 24 38
e 24 39
e 24 45
e 24 55
e 24 59
e 24 61
e 24 73
e 24 74
e 24 76
e 24 83
e 24 89
e 25 27
e 25 29
e 25 30
e 25 33
e 25 35
e 25 37
e 25 38
e 25 55
e 25 59
e 26 27
e 26 29
e 26 31
e 26 34
e 26 42
e 26 43
e 26 44
e 26 50
e 26 64
e 26 69
e 26 86
e 26 89
e 26 92
e 26 93
e 27 42
e 27 43
e 27 89
e 27 92
e 27 93
e 28 32
e 28 52
e 28 53
e 28 61
e 28 63
e 28 80
e 28 82
e 29 30
e 29 31
e 29 33
e 29 34
e 29 35
e 29 37
e 29 38
e 29 44
e 29 50
e 29 55
e 29 59
e 29 64
e 29 69
e 29 86
e 30 33
e 30 35
e 30 37
e 30 38
e 30 55
e 30 59
e 30 62
e 30 77
e 30 79
e 30 82
e 30 84
e 31 32
e 31 34
e 31 44
e 31 47
e 31 49
e 31 50
e 31 64
e 31 69
e 31 76
e 31 85
e 31 86
e 32 47
e 32 49
e 32 76
e 32 85
e 33 35
e 33 37
e 33 38
e 33 42
e 33 55
e 33 59
e 33 60
e 33 63
e 33 72
e 33 87
e 34 36
e 34 44
e 34 50
e 34 56
e 34 57
e 34 64
e 34 65
e 34 69
e 34 86
e 34 91
e 35 37
e 35 38
e 35 55
e 35 58
e 35 59
e 35 81
e 35 90
e 35 91
e 36 38
e 36 48
e 36 49
e 36 56
e 36 57
e 36 65
e 36 67
e 36 91
e 37 38
e 37 41
e 37 51
e 37 52
e 37 55
e 37 57
e 37 59
e 37 71
e 37 88
e 37 93
e 38 48
e 38 49
e 38 55
e 38 59
e 38 67
e 39 40
e 39 44
e 39 45
e 39 61
e 39 73
e 39 74
e 39 76
e 39 77
e 39 83
e 39 88
e 39 89
e 39 90
e 40 44
e 40 47
e 40 54
e 40 55
e 40 65
e 40 77
e 40 78
e 40 88
e 40 90
e 41 45
e 41 48
e 41 51
e 41 52
e 41 57
e 41 71
e 41 86
e 41 87
e 41 88
e 41 93
e 42 43
e 42 60
e 42 63
e 42 72
e 42 87
e 42 89
e 42 92
e 42 93
e 43 46
e 43 53
e 43 59
e 43 68
e 43 89
e 43 92
e 43 93
e 44 50
e 44 64
e 44 69
e 44 77
e 44 86
e 44 88
e 44 90
e 45 48
e 45 61
e 45 73
e 45 74
e 45 76
e 45 83
e 45 86
e 45 87
e 45 89
e 46 53
e 46 54
e 46 58
e 46 59
e 46 68
e 46 69
e 46 70
e 46 71
e 46 72
e 46 83
e 46 84
e 47 49
e 47 54
e 47 55
e 47 65
e 47 76
e 47 78
e 47 85
e 48 49
e 48 67
e 48 86
e 48 87
e 49 67
e 49 76
e 49 85
e 50 51
e 50 64
e 50 69
e 50 73
e 50 75
e 50 78
e 50 79
e 50 81
e 50 86
e 51 52
e 51 57
e 51 71
e 51 73
e 51 75
e 51 78
e 51 79
e 51 81
e 51 88
e 51 93
e 52 53
e 52 57
e 52 61
e 52 63
e 52 71
e 52 80
e 52 82
e 52 88
e 52 93
e 53 59
e 53 61
e 53 63
e 53 68
e 53 80
e 53 82
e 54 55
e 54 58
e 54 65
e 54 69
e 54 70
e 54 71
e 54 72
e 54 78
e 54 83
e 54 84
e 55 59
e 55 65
e 55 78
e 56 57
e 56 65
e 56 66
e 56 70
e 56 75
e 56 80
e 56 85
e 56 91
e 56 92
e 57 65
e 57 71
e 57 88
e 57 91
e 57 93
e 58 69
e 58 70
e 58 71
e 58 72
e 58 81
e 58 83
e 58 84
e 58 90
e 58 91
e 59 68
e 60 62
e 60 63
e 60 64
e 60 66
e 60 67
e 60 68
e 60 72
e 60 74
e 60 87
e 61 63
e 61 73
e 61 74
e 61 76
e 61 80
e 61 82
e 61 83
e 61 89
e 62 64
e 62 66
e 62 67
e 62 68
e 62 74
e 62 77
e 62 79
e 62 82
e 62 84
e 63 72
e 63 80
e 63 82
e 63 87
e 64 66
e 64 67
e 64 68
e 64 69
e 64 74
e 64 86
e 65 78
e 65 91
e 66 67
e 66 68
e 66 70
e 66 74
e 66 75
e 66 80
e 66 85
e 66 92
e 67 68
e 67 74
e 68 74
e 69 70
e 69 71
e 69 72
e 69 83
e 69 84
e 69 86
e 70 71
e 70 72
e 70 75
e 70 80
e 70 83
e 70 84
e 70 85
e 70 92
e 71 72
e 71 83
e 71 84
e 71 88
e 71 93
e 72 83
e 72 84
e 72 87
e 73 74
e 73 75
e 73 76
e 73 78
e 73 79
e 73 81
e 73 83
e 73 89
e 74 76
e 74 83
e 74 89
e 75 78
e 75 79
e 75 80
e 75 81
e 75 85
e 75 92
e 76 83
e 76 85
e 76 89
e 77 79
e 77 82
e 77 84
e 77 88
e 77 90
e 78 79
e 78 81
e 79 81
e 79 82
e 79 84
e 80 82
e 80 85
e 80 92
e 81 90
e 81 91
e 82 84
e 83 84
e 83 89
e 85 92
e 86 87
e 88 90
e 88 93
e 89 92
e 89 93
e 90 91
e 92 93
